#t HF/6-31G nosymm noraff

H2O

0 1
O  0.000000000000    -0.000000000000    -0.079135765807
H  0.000000000000     0.707106781187     0.627971015380
H  0.000000000000    -0.707106781187     0.627971015380

